(set-info :status unknown)
(declare-fun %Y () (_ BitVec 6))
(declare-fun %X () (_ BitVec 6))
(assert
 (let (($x7419 (and (distinct (bvudiv ((_ zero_extend 28) %X) ((_ zero_extend 28) %Y)) ((_ zero_extend 28) (bvudiv %X %Y))) true)))
 (and (and (distinct ((_ zero_extend 28) %Y) (_ bv0 34)) true) $x7419)))
(check-sat)
